c "325498.clq"
p edge 100 384
e 1 5
e 1 7
e 1 8
e 1 9
e 1 16
e 1 34
e 1 38
e 1 40
e 1 42
e 1 59
e 1 67
e 1 75
e 1 100
e 2 5
e 2 6
e 2 9
e 2 43
e 2 53
e 2 57
e 3 5
e 3 6
e 3 7
e 3 8
e 3 9
e 3 14
e 3 21
e 3 22
e 3 25
e 3 27
e 3 30
e 3 34
e 3 41
e 3 42
e 3 44
e 3 46
e 3 57
e 3 60
e 3 65
e 3 78
e 4 5
e 4 6
e 4 12
e 4 14
e 4 15
e 4 17
e 4 26
e 4 30
e 4 40
e 4 44
e 4 52
e 4 72
e 4 95
e 5 6
e 5 7
e 5 11
e 5 13
e 5 16
e 5 18
e 5 23
e 5 26
e 5 41
e 5 44
e 5 45
e 5 61
e 5 83
e 6 7
e 6 8
e 6 10
e 6 11
e 6 12
e 6 16
e 6 19
e 6 20
e 6 24
e 6 27
e 6 36
e 6 55
e 6 60
e 6 65
e 6 71
e 6 79
e 6 84
e 6 86
e 6 89
e 6 90
e 7 8
e 7 9
e 7 10
e 7 11
e 7 12
e 7 13
e 7 15
e 7 22
e 7 28
e 7 29
e 7 33
e 7 35
e 7 38
e 7 44
e 7 47
e 7 48
e 7 49
e 7 56
e 7 57
e 7 69
e 7 70
e 7 83
e 7 88
e 7 94
e 8 10
e 8 13
e 8 17
e 8 30
e 8 32
e 8 59
e 8 70
e 8 79
e 8 84
e 9 10
e 9 13
e 9 15
e 9 19
e 9 21
e 9 28
e 9 29
e 9 36
e 9 47
e 9 48
e 9 58
e 9 62
e 9 63
e 9 64
e 9 66
e 9 67
e 9 81
e 9 84
e 9 86
e 10 11
e 10 12
e 10 15
e 10 20
e 10 21
e 10 23
e 10 25
e 10 26
e 10 29
e 10 32
e 10 33
e 10 35
e 10 36
e 10 37
e 10 38
e 10 43
e 10 45
e 10 50
e 10 54
e 10 64
e 10 66
e 10 67
e 10 68
e 10 69
e 10 76
e 10 84
e 10 85
e 10 88
e 10 91
e 11 18
e 11 19
e 11 20
e 11 21
e 11 23
e 11 24
e 11 27
e 11 78
e 11 94
e 11 99
e 12 14
e 12 16
e 12 18
e 12 19
e 12 28
e 12 37
e 12 52
e 12 80
e 12 87
e 12 98
e 13 14
e 13 17
e 13 18
e 13 29
e 13 36
e 13 41
e 13 61
e 13 68
e 13 72
e 13 93
e 14 22
e 14 23
e 14 24
e 14 25
e 14 35
e 14 39
e 14 46
e 14 47
e 14 51
e 14 55
e 14 69
e 14 87
e 14 95
e 14 96
e 15 17
e 15 31
e 15 40
e 15 53
e 15 59
e 15 77
e 15 93
e 16 24
e 16 31
e 16 70
e 16 98
e 17 20
e 17 41
e 17 62
e 17 78
e 18 43
e 18 56
e 18 67
e 19 25
e 19 28
e 19 32
e 19 46
e 19 49
e 19 73
e 19 81
e 19 85
e 19 89
e 20 22
e 20 27
e 20 31
e 20 34
e 20 45
e 20 49
e 20 54
e 20 63
e 20 66
e 20 68
e 20 71
e 20 73
e 20 100
e 21 26
e 21 42
e 21 43
e 21 53
e 22 33
e 22 50
e 22 61
e 22 87
e 23 48
e 23 57
e 24 31
e 24 35
e 24 42
e 24 49
e 24 56
e 24 58
e 24 74
e 24 83
e 24 95
e 25 30
e 25 55
e 26 92
e 27 39
e 27 48
e 27 79
e 28 32
e 28 33
e 28 50
e 29 37
e 29 38
e 29 72
e 29 83
e 29 89
e 29 95
e 30 34
e 31 40
e 31 71
e 31 79
e 31 85
e 31 97
e 32 39
e 32 46
e 32 47
e 32 80
e 33 64
e 34 37
e 34 70
e 34 75
e 35 97
e 36 39
e 36 50
e 36 55
e 36 78
e 37 52
e 37 69
e 37 92
e 38 58
e 38 74
e 40 68
e 40 81
e 41 71
e 41 73
e 41 92
e 42 45
e 42 62
e 42 91
e 42 93
e 43 82
e 43 92
e 43 94
e 44 100
e 45 81
e 45 82
e 46 51
e 46 74
e 47 52
e 47 60
e 47 96
e 48 51
e 48 53
e 48 59
e 48 62
e 50 51
e 50 54
e 50 65
e 50 74
e 50 76
e 50 80
e 51 54
e 51 56
e 51 61
e 51 86
e 51 96
e 52 77
e 52 88
e 52 94
e 52 97
e 53 58
e 53 63
e 53 64
e 53 98
e 54 75
e 55 75
e 55 77
e 55 90
e 56 60
e 57 90
e 58 72
e 59 73
e 59 89
e 59 99
e 60 63
e 60 85
e 60 100
e 61 91
e 61 99
e 62 91
e 63 86
e 64 65
e 64 76
e 65 66
e 65 93
e 67 76
e 67 98
e 70 80
e 71 82
e 74 88
e 74 99
e 76 77
e 78 82
e 78 87
e 81 97
e 86 96
e 87 90
